language Essence 1.3

letting blksize_delta be
        function(1 --> 9, 2 --> 8, 3 --> 8, 4 --> 8, 5 --> 8, 6 --> 8, 7 --> 8, 8 --> 8, 9 --> 8, 10 --> 8, 11 --> 8,
                 12 --> 8, 13 --> 8, 14 --> 8, 15 --> 8, 16 --> 8, 17 --> 8, 18 --> 10, 19 --> 8, 20 --> 8, 21 --> 8,
                 22 --> 8, 23 --> 8, 24 --> 8, 25 --> 10, 26 --> 8, 27 --> 8, 28 --> 9, 29 --> 10, 30 --> 8)
letting maxcars be
        function(1 --> 9, 2 --> 9, 3 --> 9, 4 --> 9, 5 --> 9, 6 --> 9, 7 --> 9, 8 --> 9, 9 --> 9, 10 --> 9, 11 --> 9,
                 12 --> 9, 13 --> 9, 14 --> 9, 15 --> 9, 16 --> 10, 17 --> 9, 18 --> 10, 19 --> 9, 20 --> 9, 21 --> 9,
                 22 --> 9, 23 --> 9, 24 --> 9, 25 --> 9, 26 --> 9, 27 --> 9, 28 --> 9, 29 --> 9, 30 --> 9)
letting n_cars be 220
letting n_classes be 31
letting n_options be 30
letting quantity be
        function(1 --> 7, 2 --> 7, 3 --> 9, 4 --> 7, 5 --> 7, 6 --> 7, 7 --> 7, 8 --> 7, 9 --> 7, 10 --> 7, 11 --> 7,
                 12 --> 7, 13 --> 7, 14 --> 8, 15 --> 7, 16 --> 7, 17 --> 7, 18 --> 7, 19 --> 7, 20 --> 7, 21 --> 7,
                 22 --> 7, 23 --> 7, 24 --> 7, 25 --> 7, 26 --> 7, 27 --> 7, 28 --> 7, 29 --> 7, 30 --> 7, 31 --> 7)
letting usage be
        relation((1, 4), (1, 10), (1, 11), (1, 15), (1, 22), (2, 3), (2, 10), (2, 19), (3, 14), (3, 15), (3, 19),
                 (3, 25), (3, 26), (4, 11), (4, 18), (5, 10), (5, 24), (5, 29), (6, 1), (6, 13), (6, 24), (6, 30),
                 (7, 11), (7, 21), (7, 25), (8, 3), (8, 6), (8, 8), (8, 12), (8, 24), (8, 27), (9, 1), (9, 2), (9, 8),
                 (9, 25), (10, 6), (10, 9), (10, 30), (11, 13), (11, 28), (12, 2), (12, 8), (13, 9), (13, 15), (13, 18),
                 (13, 30), (14, 4), (14, 22), (14, 27), (15, 14), (15, 17), (15, 26), (16, 6), (16, 7), (16, 10),
                 (16, 25), (17, 3), (17, 10), (17, 12), (17, 18), (17, 21), (17, 23), (18, 1), (18, 6), (18, 9),
                 (19, 5), (19, 14), (20, 30), (21, 17), (21, 30), (22, 3), (22, 4), (22, 5), (22, 11), (22, 14),
                 (23, 13), (23, 17), (23, 20), (23, 28), (24, 30), (25, 12), (25, 15), (25, 23), (25, 25), (26, 2),
                 (27, 2), (27, 14), (27, 23), (27, 26), (27, 27), (28, 4), (28, 6), (29, 30), (30, 17), (30, 25),
                 (31, 8), (31, 16), (31, 21), (31, 23))
$ Visualisation for usage
$  1  4
$  1 10
$  1 11
$  1 15
$  1 22
$  2  3
$  2 10
$  2 19
$  3 14
$  3 15
$  3 19
$  3 25
$  3 26
$  4 11
$  4 18
$  5 10
$  5 24
$  5 29
$  6  1
$  6 13
$  6 24
$  6 30
$  7 11
$  7 21
$  7 25
$  8  3
$  8  6
$  8  8
$  8 12
$  8 24
$  8 27
$  9  1
$  9  2
$  9  8
$  9 25
$ 10  6
$ 10  9
$ 10 30
$ 11 13
$ 11 28
$ 12  2
$ 12  8
$ 13  9
$ 13 15
$ 13 18
$ 13 30
$ 14  4
$ 14 22
$ 14 27
$ 15 14
$ 15 17
$ 15 26
$ 16  6
$ 16  7
$ 16 10
$ 16 25
$ 17  3
$ 17 10
$ 17 12
$ 17 18
$ 17 21
$ 17 23
$ 18  1
$ 18  6
$ 18  9
$ 19  5
$ 19 14
$ 20 30
$ 21 17
$ 21 30
$ 22  3
$ 22  4
$ 22  5
$ 22 11
$ 22 14
$ 23 13
$ 23 17
$ 23 20
$ 23 28
$ 24 30
$ 25 12
$ 25 15
$ 25 23
$ 25 25
$ 26  2
$ 27  2
$ 27 14
$ 27 23
$ 27 26
$ 27 27
$ 28  4
$ 28  6
$ 29 30
$ 30 17
$ 30 25
$ 31  8
$ 31 16
$ 31 21
$ 31 23

